(declare-fun T_1 () Bool)
(declare-fun T_10 () Bool)
(declare-fun T_11 () Bool)
(declare-fun T_12 () Bool)
(declare-fun T_13 () Bool)
(declare-fun T_14 () Bool)
(declare-fun T_15 () Bool)
(declare-fun T_16 () Bool)
(declare-fun T_17 () Bool)
(declare-fun T_18 () Bool)
(declare-fun T_19 () Bool)
(declare-fun T_1a () Bool)
(declare-fun T_1b () Bool)
(declare-fun T_1c () Bool)
(declare-fun T_1d () Bool)
(declare-fun T_1e () Bool)
(declare-fun T_1f () Bool)
(declare-fun T_2 () Bool)
(declare-fun T_20 () Bool)
(declare-fun T_21 () Bool)
(declare-fun T_22 () Bool)
(declare-fun T_23 () Bool)
(declare-fun T_24 () Bool)
(declare-fun T_25 () Bool)
(declare-fun T_26 () Bool)
(declare-fun T_27 () Bool)
(declare-fun T_28 () Bool)
(declare-fun T_29 () Bool)
(declare-fun T_2a () Bool)
(declare-fun T_2b () Bool)
(declare-fun T_2c () Bool)
(declare-fun T_2d () Bool)
(declare-fun T_2e () Bool)
(declare-fun T_2f () Bool)
(declare-fun T_3 () Bool)
(declare-fun T_30 () Bool)
(declare-fun T_31 () Bool)
(declare-fun T_32 () Bool)
(declare-fun T_33 () Bool)
(declare-fun T_34 () Bool)
(declare-fun T_35 () Bool)
(declare-fun T_36 () Bool)
(declare-fun T_37 () Bool)
(declare-fun T_38 () Bool)
(declare-fun T_39 () Bool)
(declare-fun T_4 () Bool)
(declare-fun T_5 () Bool)
(declare-fun T_6 () Bool)
(declare-fun T_7 () Bool)
(declare-fun T_8 () Bool)
(declare-fun T_9 () Bool)
(declare-fun T_a () Bool)
(declare-fun T_b () Bool)
(declare-fun T_c () Bool)
(declare-fun T_d () Bool)
(declare-fun T_e () Bool)
(declare-fun T_f () Bool)
(declare-fun var_0xINPUT_107030 () String)
(assert (= T_1 (not (= "" var_0xINPUT_107030))))
(assert T_1)
(assert (= T_2 (not (= "" var_0xINPUT_107030))))
(assert T_2)
(assert (= T_3 (not (= var_0xINPUT_107030 "6JX7G3VKFq"))))
(assert (= T_4 (not T_3)))
(assert T_4)
(assert (= T_5 (not (= "6JX7G3VKFq" var_0xINPUT_107030))))
(assert (= T_6 (not T_5)))
(assert T_6)
(assert (= T_7 (= var_0xINPUT_107030 "")))
(assert (= T_8 (not T_7)))
(assert T_8)
(assert (= T_9 (not (= "" var_0xINPUT_107030))))
(assert T_9)
(assert (= T_a (not (= var_0xINPUT_107030 ""))))
(assert T_a)
(assert (= T_b (not (= "" var_0xINPUT_107030))))
(assert T_b)
(assert (= T_c (= var_0xINPUT_107030 "")))
(assert (= T_d (not T_c)))
(assert T_d)
(assert (= T_e (not (= "" var_0xINPUT_107030))))
(assert T_e)
(assert (= T_f (not (= var_0xINPUT_107030 ""))))
(assert T_f)
(assert (= T_10 (not (= "" var_0xINPUT_107030))))
(assert T_10)
(assert (= T_11 (= var_0xINPUT_107030 "")))
(assert (= T_12 (not T_11)))
(assert T_12)
(assert (= T_13 (not (= "" var_0xINPUT_107030))))
(assert T_13)
(assert (= T_14 (not (= "" var_0xINPUT_107030))))
(assert T_14)
(assert (= T_15 (not (= var_0xINPUT_107030 ""))))
(assert T_15)
(assert (= T_16 (= var_0xINPUT_107030 "")))
(assert (= T_17 (not T_16)))
(assert T_17)
(assert (= T_18 (not (= "" var_0xINPUT_107030))))
(assert T_18)
(assert (= T_19 (not (= "" var_0xINPUT_107030))))
(assert T_19)
(assert (= T_1a (not (= var_0xINPUT_107030 ""))))
(assert T_1a)
(assert (= T_1b (= var_0xINPUT_107030 "")))
(assert (= T_1c (not T_1b)))
(assert T_1c)
(assert (= T_1d (not (= "" var_0xINPUT_107030))))
(assert T_1d)
(assert (= T_1e (not (= var_0xINPUT_107030 "EMy6QEb2YT"))))
(assert T_1e)
(assert (= T_1f (not (= "EMy6QEb2YT" var_0xINPUT_107030))))
(assert T_1f)
(assert (= T_20 (= var_0xINPUT_107030 "")))
(assert (= T_21 (not T_20)))
(assert T_21)
(assert (= T_22 (not (= "" var_0xINPUT_107030))))
(assert T_22)
(assert (= T_23 (not (= "3s71lxYG6e" var_0xINPUT_107030))))
(assert T_23)
(assert (= T_24 (not (= var_0xINPUT_107030 "3s71lxYG6e"))))
(assert T_24)
(assert (= T_25 (= var_0xINPUT_107030 "")))
(assert (= T_26 (not T_25)))
(assert T_26)
(assert (= T_27 (not (= "" var_0xINPUT_107030))))
(assert T_27)
(assert (= T_28 (not (= var_0xINPUT_107030 ""))))
(assert T_28)
(assert (= T_29 (not (= "" var_0xINPUT_107030))))
(assert T_29)
(assert (= T_2a (= var_0xINPUT_107030 "")))
(assert (= T_2b (not T_2a)))
(assert T_2b)
(assert (= T_2c (not (= "" var_0xINPUT_107030))))
(assert T_2c)
(assert (= T_2d (not (= var_0xINPUT_107030 "4PH2ujcENG"))))
(assert T_2d)
(assert (= T_2e (not (= "4PH2ujcENG" var_0xINPUT_107030))))
(assert T_2e)
(assert (= T_2f (= var_0xINPUT_107030 "")))
(assert (= T_30 (not T_2f)))
(assert T_30)
(assert (= T_31 (not (= "" var_0xINPUT_107030))))
(assert T_31)
(assert (= T_32 (not (= "EMy6QEb2YT" var_0xINPUT_107030))))
(assert T_32)
(assert (= T_33 (not (= var_0xINPUT_107030 "EMy6QEb2YT"))))
(assert T_33)
(assert (= T_34 (= var_0xINPUT_107030 "")))
(assert (= T_35 (not T_34)))
(assert T_35)
(assert (= T_36 (not (= "" var_0xINPUT_107030))))
(assert T_36)
(assert (= T_37 (= var_0xINPUT_107030 "Example:")))
(assert (= T_38 (not T_37)))
(assert T_38)
(assert (= T_39 (not (= var_0xINPUT_107030 "EMy6QEb2YT"))))
(assert T_39)
(check-sat)
